c FILE /home/rafael/Documents/HappySet/MIHS/inputs/happygen/output/graph_d_regular_k3_p0.2_v50_20241127_082556.txt
c SOURCE This is a d-regular graph formed for the happy graph colouring problem.
c DESCRIPTION It was generated using the problem generator of Rhyd Lewis
c
c GRAPH STATS
c Seed                             = 1595291582
c Number of Nodes                  = 50
c Number of colours k              = 3
c Number of pre-assignments        = 10
c Degree of all vertices           = 6
c Density                          = 0.122449
c 
c The degrees of nodes 1 to 50, respectively, are as follows 
c [6, 6, 6, 6, 6, 6, 6, 6, 6, 6, 6, 6, 6, 6, 6, 6, 6, 6, 6, 6, 6, 6, 6, 6, 6, 6, 
c  6, 6, 6, 6, 6, 6, 6, 6, 6, 6, 6, 6, 6, 6, 6, 6, 6, 6, 6, 6, 6, 6, 6, 6] 
c  
p edge 50 150 3
e 1 6
e 1 23
e 1 39
e 1 40
e 1 43
e 1 49
e 2 6
e 2 12
e 2 15
e 2 27
e 2 33
e 2 40
e 3 19
e 3 30
e 3 31
e 3 33
e 3 43
e 3 47
e 4 14
e 4 16
e 4 17
e 4 20
e 4 39
e 4 50
e 5 7
e 5 10
e 5 25
e 5 26
e 5 45
e 5 48
e 6 23
e 6 25
e 6 31
e 6 38
e 7 19
e 7 21
e 7 26
e 7 29
e 7 35
e 8 13
e 8 14
e 8 21
e 8 30
e 8 35
e 8 39
e 9 19
e 9 23
e 9 36
e 9 41
e 9 44
e 9 47
e 10 12
e 10 13
e 10 16
e 10 38
e 10 41
e 11 15
e 11 16
e 11 20
e 11 21
e 11 28
e 11 45
e 12 24
e 12 28
e 12 31
e 12 42
e 13 18
e 13 37
e 13 38
e 13 48
e 14 29
e 14 30
e 14 41
e 14 48
e 15 19
e 15 28
e 15 38
e 15 50
e 16 18
e 16 26
e 16 43
e 17 18
e 17 27
e 17 35
e 17 36
e 17 37
e 18 24
e 18 27
e 18 46
e 19 28
e 19 42
e 20 36
e 20 45
e 20 48
e 20 49
e 21 22
e 21 48
e 21 49
e 22 26
e 22 32
e 22 34
e 22 47
e 22 49
e 23 26
e 23 33
e 23 34
e 24 34
e 24 39
e 24 44
e 24 48
e 25 30
e 25 36
e 25 42
e 25 44
e 26 38
e 27 37
e 27 41
e 27 46
e 28 29
e 28 32
e 29 31
e 29 35
e 29 49
e 30 31
e 30 43
e 31 42
e 32 33
e 32 39
e 32 43
e 32 46
e 33 34
e 33 36
e 34 40
e 34 46
e 35 47
e 35 50
e 36 50
e 37 38
e 37 40
e 37 50
e 39 45
e 40 45
e 40 49
e 41 42
e 41 46
e 42 46
e 43 47
e 44 45
e 44 47
e 44 50
n 1 1
n 5 3
n 13 2
n 14 2
n 21 3
n 28 2
n 29 2
n 33 1
n 46 1
n 50 3
